Version identifier: 22.1.0.0 | 2022-03-09 | 1a383f8ce
CPXPARAM_Threads                                 1
CPXPARAM_MIP_Strategy_VariableSelect             3
CPXPARAM_TimeLimit                               599.99996336300001
1 of 1 MIP starts provided solutions.
MIP start 'm1' defined initial solution with objective 215.0000.
Tried aggregator 1 time.
MIP Presolve eliminated 325 rows and 1550 columns.
MIP Presolve modified 3 coefficients.
Reduced MIP has 2167 rows, 2170 columns, and 23456 nonzeros.
Reduced MIP has 2170 binaries, 0 generals, 0 SOSs, and 0 indicators.
Presolve time = 0.02 sec. (14.90 ticks)
Probing time = 0.00 sec. (3.01 ticks)
Tried aggregator 1 time.
Detecting symmetries...
Reduced MIP has 2167 rows, 2170 columns, and 23456 nonzeros.
Reduced MIP has 2170 binaries, 0 generals, 0 SOSs, and 0 indicators.
Presolve time = 0.02 sec. (13.19 ticks)
Probing time = 0.00 sec. (3.01 ticks)
Clique table members: 1235.
MIP emphasis: balance optimality and feasibility.
MIP search method: dynamic search.
Parallel mode: none, using 1 thread.
Root relaxation solution time = 0.03 sec. (31.03 ticks)

        Nodes                                         Cuts/
   Node  Left     Objective  IInf  Best Integer    Best Bound    ItCnt     Gap

*     0+    0                          215.0000     2170.0000           909.30%
      0     0      310.0000    52      215.0000      310.0000      894   44.19%
*     0+    0                          310.0000      310.0000             0.00%
      0     0        cutoff            310.0000      310.0000      894    0.00%
Elapsed time = 0.18 sec. (158.45 ticks, tree = 0.01 MB, solutions = 2)

Root node processing (before b&c):
  Real time             =    0.18 sec. (158.60 ticks)
Sequential b&c:
  Real time             =    0.00 sec. (0.00 ticks)
                          ------------
Total (root+branch&cut) =    0.18 sec. (158.60 ticks)
Primal:	310
Dual:	310
Status:	Optimal
Time:	0.2
Sequence:
	0
	5
	9
	9
	9
	5
	9
	5
	9
	5
	0
	5
	9
	5
	9
	9
	9
	9
	9
	9
	9
	9
	9
	9
	9
	9
	9
	9
	9
	9
	4
	9
	4
	1
	9
	9
	9
	5
	9
	5
	0
	1
	4
	5
	9
	9
	9
	5
	9
	9
	6
	9
	9
	5
	9
	9
	9
	5
	9
	9
	9
	9
	9
	9
	5
	9
	9
	9
	4
	9
	4
	5
	9
	9
	9
	1
	9
	9
	9
	1
	9
	1
	9
	9
	9
	9
	1
	2
	5
	9
	5
	0
	5
	9
	5
	0
	1
	9
	1
	0
	1
	9
	1
	0
	1
	9
	0
	1
	9
	1
	0
	5
	9
	6
	9
	5
	4
	0
	5
	4
	1
	4
	4
	0
	4
	4
	9
	6
	0
	4
	1
	0
	4
	1
	9
	5
	9
	9
	9
	5
	9
	0
	1
	9
	1
	0
	9
	9
	9
	0
	9
	1
	9
	9
	9
	0
	9
	4
	4
	0
	9
	1
	0
	1
	9
	0
	5
	4
	0
	5
	9
	0
	9
	9
	0
	9
	4
	6
	9
	1
	4
	0
	4
	1
	9
	0
	6
	9
	4
	4
	1
	0
	4
	5
	9
	1
	9
	0
	4
	4
	0
	5
	4
	0
	5
	9
	0
	1
	4
	4
	0
	9
	4
	0
	4
	6
	0
	4
	1
	0
	4
	5
	9
	0
	4
	1
	0
	9
	9
	4
	9
	5
	0
	4
	5
	9
	9
	5
	0
	5
	9
	1
	0
	5
	4
	0
	5
	4
	1
	0
	1
	4
	0
	4
	4
	1
	4
	1
	4
	5
	9
	1
	4
	1
	4
	1
	9
	9
	1
	9
	1
	0
	1
	4
	1
	4
	5
	0
	4
	5
	0
	1
	4
	9
	5
	0
	4
	5
	0
	9
	1
	0
	1
	9
	5
	9
	5
	9
	5
	9
	5
	9
	5
	4
	1
	0
	4
	4
	0
	4
